CPLEX Error  1017: Not available for mixed-integer problems.
ead_APIEncoding                        "UTF-8"
CPXPARAM_MIP_Strategy_CallbackReducedLP          0
CPXPARAM_Read_DataCheck                          1
CPXPARAM_Read_APIEncoding                        "UTF-8"
CPXPARAM_MIP_Strategy_CallbackReducedLP          0
Found incumbent of value 0.000000 after 0.00 sec. (0.00 ticks)
Tried aggregator 1 time.
MIP Presolve eliminated 144 rows and 0 columns.
Reduced MIP has 63 rows, 28 columns, and 173 nonzeros.
Reduced MIP has 0 binaries, 0 generals, 0 SOSs, and 0 indicators.
Presolve time = 0.00 sec. (0.15 ticks)
Tried aggregator 1 time.
Reduced MIP has 63 rows, 28 columns, and 173 nonzeros.
Reduced MIP has 0 binaries, 0 generals, 0 SOSs, and 0 indicators.
Presolve time = 0.00 sec. (0.07 ticks)
MIP emphasis: balance optimality and feasibility.
MIP search method: dynamic search.
Parallel mode: deterministic, using up to 3 threads.
Root relaxation solution time = 0.00 sec. (0.18 ticks)

        Nodes                                         Cuts/
   Node  Left     Objective  IInf  Best Integer    Best Bound    ItCnt     Gap

*     0+    0                            0.0000       28.0000              --- 
*     0     0      integral     0        5.8750        5.8750       51    0.00%
Elapsed time = 0.00 sec. (0.44 ticks, tree = 0.00 MB, solutions = 2)

Root node processing (before b&c):
  Real time             =    0.00 sec. (0.44 ticks)
Parallel b&c, 3 threads:
  Real time             =    0.00 sec. (0.00 ticks)
  Sync time (average)   =    0.00 sec.
  Wait time (average)   =    0.00 sec.
                          ------------
Total (root+branch&cut) =    0.00 sec. (0.44 ticks)
